LAMMPS (2 Aug 2023 - Update 3)
units lj

atom_style atomic
pair_style mie/cut 2.5

variable wallRat equal 1/v_wallSize
variable sigMix equal v_wallSize/2
variable cutoffB equal 1.0204*v_wallSize
variable cutoffM equal 1.0204*v_sigMix

pair_modify shift yes

read_data ${rstFileName}
read_data hard-sphere-conf-melted-X0.5.dat.out
Reading data file ...
  orthogonal box = (0 0 -57.146438) to (19.048813 19.048813 57.146438)
  1 by 1 by 1 MPI processor grid
  reading atoms ...
  15264 atoms
  reading velocities ...
  15264 velocities
  read_data CPU = 0.150 seconds

pair_coeff 1 1 1.0 1.0 50.0 49.0 1.0204
pair_coeff 1 2 1.0 ${sigMix} 50.0 49.0 ${cutoffM}
pair_coeff 1 2 1.0 0.25 50.0 49.0 ${cutoffM}
pair_coeff 1 2 1.0 0.25 50.0 49.0 0.2551
pair_coeff 2 2 1.0 ${wallSize} 50.0 49.0 ${cutoffB}
pair_coeff 2 2 1.0 0.5 50.0 49.0 ${cutoffB}
pair_coeff 2 2 1.0 0.5 50.0 49.0 0.5102

mass 1 1.0
mass 2 1.0

group mobileGrp type 1
8352 atoms in group mobileGrp
group wallGrp type 2
6912 atoms in group wallGrp

neighbor 2.5 bin
neigh_modify every 1 delay 0 check yes page 100000

fix momentumFix all momentum 1 linear 1 1 1

fix ensFix mobileGrp nvt temp 1.5 1.5 0.1
timestep 0.001

velocity mobileGrp create 1.5 2024 dist gaussian


compute binId mobileGrp chunk/atom bin/1d z lower 0.05 units box
fix avDen all ave/chunk 100 1 100 binId density/number ave running file hard-sphere-X${wallSize}-num-Den.txt overwrite
fix avDen all ave/chunk 100 1 100 binId density/number ave running file hard-sphere-X0.5-num-Den.txt overwrite



thermo 500
run ${prodSteps}
run 100000
Generated 0 of 1 mixed pair_coeff terms from geometric mixing rule
Neighbor list info ...
  update: every = 1 steps, delay = 0 steps, check = yes
  max neighbors/atom: 2000, page size: 100000
  master list distance cutoff = 3.5204
  ghost atom cutoff = 3.5204
  binsize = 1.7602, bins = 11 11 65
  1 neighbor lists, perpetual/occasional/extra = 1 0 0
  (1) pair mie/cut, perpetual
      attributes: half, newton on
      pair build: half/bin/atomonly/newton
      stencil: half/bin/3d
      bin: standard
Per MPI rank memory allocation (min/avg/max) = 13.17 | 13.17 | 13.17 Mbytes
   Step          Temp          E_pair         E_mol          TotEng         Press     
         0   0.82072402     0.18409277     0              1.4150981      3.4003621    
       500   0.82447194     0.14161276     0              1.3782396      2.7141646    
      1000   0.8202082      0.10746395     0              1.3376956      2.1782128    
      1500   0.81108599     0.084750429    0              1.3012997      1.81328      
      2000   0.80894811     0.07120053     0              1.2845432      1.596341     
      2500   0.82140808     0.065498915    0              1.2975303      1.5103266    
      3000   0.82704738     0.058458809    0              1.2989486      1.3976818    
      3500   0.82643213     0.05443407     0              1.2940011      1.3322811    
      4000   0.83348284     0.05040404     0              1.3005464      1.2781473    
      4500   0.82767372     0.043049452    0              1.2844787      1.1419798    
      5000   0.82437696     0.0404342      0              1.2769186      1.0839787    
      5500   0.82750144     0.036776276    0              1.2779471      1.027983     
      6000   0.8230834      0.031324359    0              1.2658686      0.93025033   
      6500   0.82390558     0.028417587    0              1.264195       0.8753653    
      7000   0.82214314     0.025193133    0              1.2583271      0.81407012   
      7500   0.81875046     0.023847976    0              1.2518932      0.79899115   
      8000   0.82149851     0.020820295    0              1.2529873      0.7451351    
      8500   0.81202508     0.020805003    0              1.2387628      0.73838001   
      9000   0.79851464     0.019935073    0              1.2176286      0.71031376   
      9500   0.80995205     0.016965984    0              1.2318145      0.66261808   
     10000   0.81795479     0.018422606    0              1.2452744      0.69366276   
     10500   0.82226086     0.019147688    0              1.2524582      0.67405744   
     11000   0.8217737      0.017003445    0              1.2495832      0.66684962   
     11500   0.83071737     0.01659721     0              1.2625916      0.65138401   
     12000   0.82320274     0.014891289    0              1.2496145      0.62717147   
     12500   0.8250864      0.013573572    0              1.2511221      0.59967489   
     13000   0.81871377     0.014683098    0              1.2426733      0.60009055   
     13500   0.81558557     0.011897189    0              1.2351954      0.56382318   
     14000   0.80561336     0.012145804    0              1.2204867      0.56116456   
     14500   0.80790065     0.014266991    0              1.2260386      0.57567065   
     15000   0.81659933     0.013439759    0              1.2382585      0.5730476    
     15500   0.82475347     0.013547234    0              1.2505964      0.57356857   
     16000   0.82963815     0.011916673    0              1.2562924      0.55929809   
     16500   0.82387092     0.014032588    0              1.249758       0.57301878   
     17000   0.81078924     0.0098571877   0              1.2259614      0.51796969   
     17500   0.81522532     0.010446689    0              1.2332046      0.5229269    
     18000   0.82131297     0.013522995    0              1.2454117      0.56433696   
     18500   0.83016002     0.012297755    0              1.2574562      0.54590671   
     19000   0.8307233      0.01353843     0              1.2595418      0.55586101   
     19500   0.81237708     0.010525118    0              1.2290109      0.51206983   
     20000   0.81561197     0.011558926    0              1.2348967      0.51976518   
     20500   0.81867047     0.0085328403   0              1.2364581      0.48331126   
     21000   0.81588138     0.010167794    0              1.2339097      0.50000075   
     21500   0.82759193     0.0089881678   0              1.2502947      0.48672509   
     22000   0.82363503     0.0099099617   0              1.2452816      0.50670553   
     22500   0.82742582     0.0092359364   0              1.2502934      0.49362907   
     23000   0.82864888     0.011037865    0              1.2539298      0.51986336   
     23500   0.83215312     0.014023115    0              1.262171       0.5400152    
     24000   0.81749675     0.0089272248   0              1.235092       0.48723111   
     24500   0.81328258     0.008927547    0              1.2287715      0.48110703   
     25000   0.81405602     0.0084556545   0              1.2294597      0.47235895   
     25500   0.82028156     0.0098816759   0              1.2402234      0.49490604   
     26000   0.82807684     0.0092097309   0              1.2512436      0.48753262   
     26500   0.82307385     0.0098749066   0              1.2444048      0.48706394   
     27000   0.82750319     0.0076032781   0              1.2487767      0.46371501   
     27500   0.82213709     0.0082536905   0              1.2413785      0.46935277   
     28000   0.82048791     0.010386441    0              1.2410377      0.49080601   
     28500   0.81424164     0.009959175    0              1.2312416      0.48515141   
     29000   0.81369663     0.009206252    0              1.2296712      0.47793297   
     29500   0.81868618     0.0085076218   0              1.2364564      0.46979438   
     30000   0.82044012     0.01105614     0              1.2416357      0.49761302   
     30500   0.82104899     0.0094962578   0              1.2409891      0.4814943    
     31000   0.82296035     0.0074491566   0              1.2418088      0.45817282   
     31500   0.83156381     0.0098354785   0              1.2570995      0.48907793   
     32000   0.82297417     0.010425013    0              1.2448054      0.49730513   
     32500   0.82129389     0.010015356    0              1.2418755      0.49234198   
     33000   0.82385394     0.0096277284   0              1.2453277      0.48391048   
     33500   0.81038576     0.0086213533   0              1.2241204      0.4745768    
     34000   0.81101166     0.0081764679   0              1.2246143      0.46669085   
     34500   0.81441652     0.0080579415   0              1.2296027      0.46264364   
     35000   0.81992045     0.0095883899   0              1.2393885      0.4895298    
     35500   0.82196815     0.0086338108   0              1.2415053      0.47016447   
     36000   0.8091539      0.010060642    0              1.223712       0.49025117   
     36500   0.82323583     0.0099789593   0              1.2447518      0.49915251   
     37000   0.82281518     0.010018865    0              1.2441608      0.48788993   
     37500   0.82644624     0.0099238558   0              1.249512       0.497319     
     38000   0.82419984     0.0097134165   0              1.2459322      0.48867352   
     38500   0.83278743     0.0094283771   0              1.2585277      0.48064445   
     39000   0.82714613     0.0083041985   0              1.2489421      0.47393385   
     39500   0.8277962      0.0092468024   0              1.2508598      0.48481017   
     40000   0.82062593     0.01097437     0              1.2418326      0.50480163   
     40500   0.81037097     0.010367287    0              1.2258441      0.48428689   
     41000   0.80719386     0.0079914417   0              1.2187029      0.45933739   
     41500   0.81680033     0.0079479701   0              1.2330682      0.4590022    
     42000   0.82147315     0.009427741    0              1.2415567      0.48154942   
     42500   0.82453975     0.0092987907   0              1.2460274      0.48069514   
     43000   0.82396823     0.0087577691   0              1.2446291      0.47703171   
     43500   0.82890054     0.0097857518   0              1.2530551      0.49130844   
     44000   0.82422182     0.0093289732   0              1.2455807      0.47544256   
     44500   0.83427562     0.0075192322   0              1.2588507      0.46244514   
     45000   0.83303879     0.010195864    0              1.2596722      0.49589068   
     45500   0.82610373     0.010553421    0              1.2496278      0.50070962   
     46000   0.82149179     0.0073655894   0              1.2395225      0.45406894   
     46500   0.81670136     0.0074554638   0              1.2324272      0.45200162   
     47000   0.81887931     0.0093207181   0              1.2375592      0.47776927   
     47500   0.81136249     0.0091656263   0              1.2261296      0.46898888   
     48000   0.8196802      0.009168393    0              1.2386081      0.47480288   
     48500   0.823005       0.0095206961   0              1.2439473      0.48110151   
     49000   0.82672727     0.0079948887   0              1.2480046      0.46329039   
     49500   0.82790807     0.010250295    0              1.252031       0.49281073   
     50000   0.80712673     0.0083803541   0              1.2189911      0.46390052   
     50500   0.81118301     0.0081968895   0              1.2248917      0.45499164   
     51000   0.81911477     0.0076958142   0              1.2362875      0.45848967   
     51500   0.82424519     0.0078901024   0              1.2441769      0.46171182   
     52000   0.82262079     0.0072910547   0              1.2411414      0.44750559   
     52500   0.83083667     0.0080010669   0              1.2541744      0.4659414    
     53000   0.82138673     0.010597764    0              1.2425971      0.48827278   
     53500   0.82057066     0.010081654    0              1.240857       0.48588279   
     54000   0.81284574     0.007208024    0              1.2263968      0.44726595   
     54500   0.80220262     0.0096623315   0              1.2128874      0.47115879   
     55000   0.82003425     0.0080279396   0              1.2379987      0.45872959   
     55500   0.82460866     0.0082042692   0              1.2450362      0.45719344   
     56000   0.82359283     0.0090023194   0              1.2443106      0.46949857   
     56500   0.83125334     0.011286057    0              1.2580844      0.50191454   
     57000   0.82442112     0.0083460965   0              1.2448968      0.46534434   
     57500   0.82174286     0.0085849288   0              1.2411185      0.46242132   
     58000   0.81652142     0.0085300663   0              1.233232       0.45567319   
     58500   0.80677847     0.0086793014   0              1.2187677      0.4639353    
     59000   0.81663301     0.0089663482   0              1.2338356      0.47251469   
     59500   0.82468181     0.0084164859   0              1.2453582      0.45910479   
     60000   0.8256919      0.010642471    0              1.2490992      0.49551081   
     60500   0.82086857     0.010677408    0              1.2418996      0.48926064   
     61000   0.82504348     0.009252385    0              1.2467365      0.46815338   
     61500   0.80735483     0.0086406823   0              1.2195936      0.46142655   
     62000   0.80884495     0.010199767    0              1.2233877      0.48108515   
     62500   0.81683689     0.0087404612   0              1.2339155      0.46641122   
     63000   0.82217851     0.0093544149   0              1.2425414      0.47375735   
     63500   0.82161593     0.0081076048   0              1.2404508      0.45603806   
     64000   0.82547121     0.0097070087   0              1.2478327      0.47950515   
     64500   0.82438663     0.0086590824   0              1.245158       0.46813948   
     65000   0.82940677     0.0093236773   0              1.2533523      0.48018359   
     65500   0.82245544     0.0076935146   0              1.2412958      0.45168786   
     66000   0.81414104     0.0084643165   0              1.2295959      0.46244199   
     66500   0.80649564     0.0096728611   0              1.2193371      0.46600837   
     67000   0.81482552     0.0088488306   0              1.231007       0.46117073   
     67500   0.82157075     0.010577827    0              1.2428532      0.48112393   
     68000   0.83087538     0.012710578    0              1.258942       0.518541     
     68500   0.83000362     0.0090386846   0              1.2539626      0.47519108   
     69000   0.8232106      0.0094048094   0              1.2441398      0.47425844   
     69500   0.8158524      0.010457337    0              1.2341558      0.48356768   
     70000   0.8165686      0.0091798457   0              1.2339525      0.47253251   
     70500   0.8221532      0.0087512885   0              1.2419003      0.46487759   
     71000   0.83153589     0.0093404078   0              1.2565625      0.47433098   
     71500   0.82906862     0.0089679766   0              1.2524894      0.47017939   
     72000   0.82131072     0.0099351298   0              1.2418205      0.48115905   
     72500   0.82015322     0.012408144    0              1.2425574      0.51371119   
     73000   0.81951396     0.0091592231   0              1.2383496      0.46727156   
     73500   0.81219615     0.0091467246   0              1.2273611      0.46964073   
     74000   0.8191708      0.0090885706   0              1.2377643      0.46898316   
     74500   0.81340744     0.011360843    0              1.2313921      0.5021764    
     75000   0.82136477     0.010659272    0              1.2426257      0.49290635   
     75500   0.82820252     0.011295247    0              1.2535176      0.50224376   
     76000   0.82514216     0.011236593    0              1.2488687      0.50313298   
     76500   0.82298895     0.009329109    0              1.2437317      0.47513933   
     77000   0.81817504     0.0087280352   0              1.2359102      0.45893687   
     77500   0.80683205     0.010732966    0              1.2209018      0.48863927   
     78000   0.81987181     0.0097648652   0              1.239492       0.47843623   
     78500   0.82136431     0.011524113    0              1.2434899      0.50159684   
     79000   0.82667745     0.0097003681   0              1.2496353      0.48399521   
     79500   0.8437285      0.0081885577   0              1.2736984      0.46466871   
     80000   0.83142086     0.0097515079   0              1.2568011      0.479924     
     80500   0.81977335     0.011221548    0              1.240801       0.48894182   
     81000   0.81345598     0.0089212885   0              1.2290253      0.46324289   
     81500   0.81405869     0.010067081    0              1.2310751      0.47648987   
     82000   0.82416335     0.0087856602   0              1.2449497      0.46617316   
     82500   0.83401492     0.0089650708   0              1.2599055      0.46581589   
     83000   0.82303267     0.009797445    0              1.2442656      0.47504107   
     83500   0.81419954     0.011233396    0              1.2324527      0.49235476   
     84000   0.81162246     0.0093895333   0              1.2267435      0.4678724    
     84500   0.82795717     0.0072486679   0              1.2491031      0.45061263   
     85000   0.83073207     0.010080298    0              1.2560968      0.48257351   
     85500   0.82102128     0.0093283156   0              1.2407796      0.47248213   
     86000   0.81438573     0.0090514768   0              1.23055        0.46277436   
     86500   0.8112807      0.0083520537   0              1.2251934      0.45196896   
     87000   0.82016862     0.010883631    0              1.241056       0.49489631   
     87500   0.82983369     0.01071626     0              1.2553853      0.49034595   
     88000   0.82683473     0.0091397196   0              1.2493106      0.4662489    
     88500   0.82589394     0.00765407     0              1.2464138      0.44692359   
     89000   0.81976998     0.0098284039   0              1.2394028      0.47072301   
     89500   0.81029833     0.0087788059   0              1.2241467      0.45495843   
     90000   0.81755224     0.0092294719   0              1.2354775      0.47068985   
     90500   0.81531462     0.0098080544   0              1.2326999      0.4751884    
     91000   0.81835258     0.0078768876   0              1.2353253      0.45380542   
     91500   0.82705603     0.010457785    0              1.2509606      0.48119739   
     92000   0.82636182     0.009349243    0              1.2488108      0.47414441   
     92500   0.83208588     0.010258105    0              1.2583052      0.49156596   
     93000   0.82381214     0.008959822    0              1.2445971      0.4629196    
     93500   0.82766482     0.010477383    0              1.2518933      0.49198183   
     94000   0.82318093     0.0081831605   0              1.2428737      0.45634177   
     94500   0.81680561     0.0087687067   0              1.2338969      0.46120867   
     95000   0.81930542     0.0081182654   0              1.2369959      0.44844068   
     95500   0.8114909      0.0082890085   0              1.2254456      0.45198904   
     96000   0.81934        0.0099484151   0              1.2388779      0.47524683   
     96500   0.82435447     0.00956158     0              1.2460123      0.47423171   
     97000   0.83550683     0.01288857     0              1.2660667      0.5201457    
     97500   0.82981023     0.009151816    0              1.2537856      0.46633811   
     98000   0.81535278     0.0090942703   0              1.2320433      0.46120866   
     98500   0.81373679     0.010975518    0              1.2315007      0.4962462    
     99000   0.81908821     0.0092291682   0              1.237781       0.46831204   
     99500   0.80976248     0.0091342737   0              1.2236984      0.4651882    
    100000   0.81702299     0.011516359    0              1.2369705      0.49292567   
Loop time of 708.772 on 1 procs for 100000 steps with 15264 atoms

Performance: 12190.092 tau/day, 141.089 timesteps/s, 2.154 Matom-step/s
97.5% CPU use with 1 MPI tasks x no OpenMP threads

MPI task timing breakdown:
Section |  min time  |  avg time  |  max time  |%varavg| %total
---------------------------------------------------------------
Pair    | 624.56     | 624.56     | 624.56     |   0.0 | 88.12
Neigh   | 28.396     | 28.396     | 28.396     |   0.0 |  4.01
Comm    | 8.7444     | 8.7444     | 8.7444     |   0.0 |  1.23
Output  | 0.014645   | 0.014645   | 0.014645   |   0.0 |  0.00
Modify  | 39.224     | 39.224     | 39.224     |   0.0 |  5.53
Other   |            | 7.836      |            |       |  1.11

Nlocal:          15264 ave       15264 max       15264 min
Histogram: 1 0 0 0 0 0 0 0 0 0
Nghost:          13696 ave       13696 max       13696 min
Histogram: 1 0 0 0 0 0 0 0 0 0
Neighs:    1.25353e+06 ave 1.25353e+06 max 1.25353e+06 min
Histogram: 1 0 0 0 0 0 0 0 0 0

Total # of neighbors = 1253529
Ave neighs/atom = 82.123231
Neighbor list builds = 643
Dangerous builds = 0

write_data ${outFileName}
write_data hard-sphere-conf-equil-X0.5.dat.out
System init for write_data ...
Generated 0 of 1 mixed pair_coeff terms from geometric mixing rule



Total wall time: 0:11:49
